
Gurobi 11.0.3 (linux64) logging started Fri Nov 22 21:22:48 2024

Set parameter LogFile to value "/home/yihong/Coding/OR_SUC/SUC_results_bigM100000_thread4/case24_ieee_rts_theta0.1_epsilon0.025_gurobi_seed410000_num_gen100_N_WDR100_load_scaling_factor1_exact_T16quadra_cost.txt"
Set parameter TimeLimit to value 3600
Gurobi Optimizer version 11.0.3 build v11.0.3rc0 (linux64 - "Ubuntu 20.04.6 LTS")

CPU model: AMD EPYC 7532 32-Core Processor, instruction set [SSE2|AVX|AVX2]
Thread count: 64 physical cores, 128 logical processors, using up to 4 threads

Optimize a model with 34563 rows, 20041 columns and 474826 nonzeros
Model fingerprint: 0xc78ad9a3
Model has 1600 quadratic constraints
Variable types: 18341 continuous, 1700 integer (1700 binary)
Coefficient statistics:
  Matrix range     [3e-04, 1e+05]
  QMatrix range    [2e-03, 8e-03]
  QLMatrix range   [3e-02, 6e+01]
  Objective range  [1e+00, 1e+00]
  Bounds range     [1e+00, 1e+00]
  RHS range        [1e+00, 1e+05]
Presolve removed 28032 rows and 8743 columns
Presolve time: 0.16s
Presolved: 6531 rows, 11298 columns, 42892 nonzeros
Presolved model has 1600 quadratic constraint(s)
Variable types: 9637 continuous, 1661 integer (1661 binary)

Root relaxation: objective 2.265009e+04, 4714 iterations, 0.09 seconds (0.12 work units)

    Nodes    |    Current Node    |     Objective Bounds      |     Work
 Expl Unexpl |  Obj  Depth IntInf | Incumbent    BestBd   Gap | It/Node Time

     0     0 22650.0919    0   19          - 22650.0919      -     -    0s
     0     0 230317.193    0  443          - 230317.193      -     -    0s
     0     0 414043.114    0  397          - 414043.114      -     -    0s
     0     0 414066.319    0  305          - 414066.319      -     -    0s
     0     0 414391.682    0  274          - 414391.682      -     -    0s
     0     0 414392.588    0  274          - 414392.588      -     -    0s
     0     0 414508.394    0  274          - 414508.394      -     -    0s
     0     0 414509.221    0  274          - 414509.221      -     -    1s
     0     2 414509.221    0  274          - 414509.221      -     -    1s
H  353   306                    414708.97281 414534.401  0.04%  15.2    1s
*  353   306             108    414708.97281 414534.401  0.04%  15.2    1s

Cutting planes:
  Gomory: 6
  Implied bound: 290
  MIR: 108
  Flow cover: 134
  PSD: 9

Explored 355 nodes (18581 simplex iterations) in 2.26 seconds (2.79 work units)
Thread count was 4 (of 128 available processors)

Solution count 2: 414709 414709 

Optimal solution found (tolerance 1.00e-03)
Warning: max constraint violation (5.9857e-07) exceeds tolerance
Best objective 4.147089728067e+05, best bound 4.145344009864e+05, gap 0.0421%
